p edge 20 49 5
v 2 5 18
v 2 2 11
v 7 3 6 8 10 12 13 17
v 3 7 9 16
v 6 1 4 14 15 19 20
e 1 13
e 1 18
e 1 20
e 2 6
e 2 10
e 2 11
e 2 14
e 2 15
e 2 16
e 2 19
e 2 20
e 3 9
e 3 12
e 3 15
e 3 17
e 4 13
e 4 20
e 5 8
e 5 12
e 5 14
e 5 18
e 6 8
e 6 9
e 6 10
e 7 20
e 8 13
e 8 16
e 8 20
e 9 10
e 9 11
e 9 16
e 10 12
e 10 15
e 10 17
e 10 20
e 11 12
e 11 16
e 11 17
e 11 18
e 11 19
e 11 20
e 12 15
e 12 16
e 12 18
e 14 18
e 14 20
e 15 17
e 15 20
e 17 18
